nP = 2;
nT = 5;
nC1 = 5;
nC2 = 8;
nA = 75;
nD = 3;

arc_from = [1, 1, 1, 1, 1, 2, 2, 2, 2, 2, 3, 3, 3, 3, 3, 4, 4, 4, 4, 4, 5, 5, 5, 5, 5, 6, 6, 6, 6, 6, 7, 7, 7, 7, 7, 8, 8, 8, 8, 8, 8, 8, 8, 9, 9, 9, 9, 9, 9, 9, 9, 10, 10, 10, 10, 10, 10, 10, 10, 11, 11, 11, 11, 11, 11, 11, 11, 12, 12, 12, 12, 12, 12, 12, 12];
arc_to = [3, 4, 5, 6, 7, 3, 4, 5, 6, 7, 8, 9, 10, 11, 12, 8, 9, 10, 11, 12, 8, 9, 10, 11, 12, 8, 9, 10, 11, 12, 8, 9, 10, 11, 12, 13, 14, 15, 16, 17, 18, 19, 20, 13, 14, 15, 16, 17, 18, 19, 20, 13, 14, 15, 16, 17, 18, 19, 20, 13, 14, 15, 16, 17, 18, 19, 20, 13, 14, 15, 16, 17, 18, 19, 20];

supply = [359.54, 359.54, 0.00, 0.00, 0.00, 0.00, 0.00, 0.00, 0.00, 0.00, 0.00, 0.00, 0.00, 0.00, 0.00, 0.00, 0.00, 0.00, 0.00, 0.00];
demand = [0.00, 0.00, 0.00, 0.00, 0.00, 0.00, 0.00, 68.66, 60.17, 70.72, 61.47, 73.88, 68.08, 79.71, 65.25, 69.45, 75.02, 66.70, 66.97, 72.78];

max_capacity = [795, 1414, 3181];

install_cost = array2d(1..nA, 1..nD, [
  20, 24, 32,
  50, 62, 78,
  20, 24, 32,
  50, 62, 78,
  20, 24, 32,
  50, 62, 78,
  20, 24, 32,
  50, 62, 78,
  20, 24, 32,
  50, 62, 78,
  20, 24, 32,
  50, 62, 78,
  20, 24, 32,
  50, 62, 78,
  20, 24, 32,
  50, 62, 78,
  20, 24, 32,
  50, 62, 78,
  20, 24, 32,
  50, 62, 78,
  20, 24, 32,
  50, 62, 78,
  20, 24, 32,
  50, 62, 78,
  20, 24, 32,
  50, 62, 78,
  20, 24, 32,
  50, 62, 78,
  20, 24, 32,
  50, 62, 78,
  20, 24, 32,
  50, 62, 78,
  20, 24, 32,
  50, 62, 78,
  20, 24, 32,
  50, 62, 78,
  20, 24, 32,
  50, 62, 78,
  20, 24, 32,
  50, 62, 78,
  20, 24, 32,
  50, 62, 78,
  20, 24, 32,
  50, 62, 78,
  20, 24, 32,
  50, 62, 78,
  20, 24, 32,
  50, 62, 78,
  20, 24, 32,
  50, 62, 78,
  20, 24, 32,
  50, 62, 78,
  20, 24, 32,
  50, 62, 78,
  20, 24, 32,
  50, 62, 78,
  20, 24, 32,
  50, 62, 78,
  20, 24, 32,
  50, 62, 78,
  20, 24, 32,
  50, 62, 78,
  20, 24, 32,
  50, 62, 78,
  20, 24, 32,
  50, 62, 78,
  20, 24, 32,
  50, 62, 78,
  20, 24, 32,
  50, 62, 78,
  20, 24, 32,
  50, 62, 78,
  20, 24, 32,
  50, 62, 78,
  20, 24, 32
]);

trans_cost = [6.62, 6.90, 4.30, 7.03, 6.88, 6.70, 3.87, 6.66, 6.12, 7.44, 8.68, 8.38, 6.17, 6.00, 6.95, 4.33, 3.82, 5.29, 7.83, 5.50, 8.25, 1.82, 3.62, 5.81, 7.33, 5.90, 5.86, 5.82, 3.36, 7.74, 4.98, 7.63, 5.89, 7.60, 6.51, 5.84, 6.34, 3.79, 6.01, 8.57, 7.96, 4.52, 6.76, 6.37, 7.23, 6.14, 5.65, 8.00, 6.32, 7.88, 7.46, 5.51, 5.75, 8.89, 6.29, 4.86, 4.20, 7.46, 6.24, 4.81, 7.01, 6.24, 3.51, 6.88, 8.00, 9.84, 6.05, 6.35, 8.41, 6.25, 6.41, 5.05, 3.91, 7.37, 4.09];

% Metadata: {'tamaño': 'pequeña', 'numero': 8, 'grupo': 5, 'demanda_total': 898.86, 'suministro_total': 719.08, 'factor_holgura': 0.8, 'num_arcos': 75}
% Total supply: 719.08
% Total demand: 898.86
% Balance factor: 0.80
